10
1 0 7
2 0 48
2 1 49
3 0 93
3 1 34
3 2 16
4 0 65
4 1 84
4 2 55
4 3 43
5 0 48
5 1 6
5 2 14
5 3 17
5 4 78
6 0 83
6 1 60
6 2 50
6 3 12
6 4 48
6 5 59
7 0 65
7 1 17
7 2 25
7 3 98
7 4 93
7 5 19
7 6 2
8 0 79
8 1 48
8 2 51
8 3 22
8 4 43
8 5 12
8 6 88
8 7 89
9 0 65
9 1 54
9 2 78
9 3 71
9 4 15
9 5 52
9 6 30
9 7 27
9 8 79
